unsat
(:elim-unconstrained  4
 :max-memory          18.43
 :memory              18.43
 :nlsat-arith-var     1
 :nlsat-atoms         3
 :nlsat-bool-var      1
 :nlsat-clauses       3
 :nlsat-conflicts     1
 :nlsat-propagations  3
 :nlsat-stages        1
 :num-allocs          39937
 :rlimit-count        781
 :solve-eqs-elim-vars 2
 :solve-eqs-steps     2
 :time                0.00
 :total-time          0.02)
